# avogadro generated ORCA input file 
# Basic Mode
# 
! wB97X-D3 OPT def2-TZVP def2/J CPCM
%cpcm
  epsilon 3
end
%pal
 nprocs 4
end 

* xyz 0 1
   C       -2.97190        2.69841       -0.76322
   C       -1.69397        3.53349       -0.78017
   H       -3.32699        2.51076        0.26674
   H       -2.87001        1.77853       -1.36797
   H       -3.77652        3.28838       -1.25226
   C       -1.32687        0.69031        0.60000
   C       -0.20249        1.71249        0.45287
   H       -2.13744        1.06241        1.25320
   H       -0.91575       -0.20361        1.11626
   H       -1.68372        0.32715       -0.38131
   N       -0.42980        3.02385       -0.19884
   H       -1.95745        4.47697       -0.25311
   H       -1.51049        3.75913       -1.85382
   H        0.59708        1.18375       -0.11134
   H        0.15239        1.90267        1.48979
   C        0.72418        3.91711       -0.27641
   C        0.63751        5.19979       -0.87767
   C        1.99323        3.54595        0.24011
   C        1.74070        6.05263       -0.95076
   H       -0.27829        5.57594       -1.30711
   C        2.98409        5.67201       -0.42306
   H        1.60383        7.01013       -1.43185
   C        3.09780        4.40045        0.16614
   H        2.16428        2.58907        0.70953
   C        4.19795        6.55779       -0.48763
   O        4.28204        3.97868        0.66530
   C        5.37047        6.09602        0.03649
   C        5.40758        4.73149        0.62961
   C        6.54156        4.23128        1.14156
   C        6.61607        6.91183        0.09569
   C        7.74828        6.41070        0.60578
   H        6.63398        7.93435       -0.26333
   C        7.84880        4.99205        1.14308
   H        6.53340        3.23418        1.57224
   H        8.62720        7.04478        0.63702
   N        8.89627        4.19604        0.46716
   C        8.72175        4.10619       -1.00442
   C       10.24138        4.63872        0.89250
   C        8.70728        2.64462       -1.44038
   H        8.55802        2.58493       -2.53894
   H        7.87347        2.10982       -0.93770
   H        9.65867        2.13741       -1.18635
   H        9.51689        4.66282       -1.54807
   H        7.74985        4.53704       -1.32900
   C       11.32611        3.62417        0.53522
   H       11.42399        3.51236       -0.56349
   H       11.09301        2.63921        0.99221
   H       12.30357        3.97678        0.92645
   H       10.25756        4.74888        2.00030
   H       10.49635        5.62250        0.44306
  Cl       11.01526        8.44386       -0.78794
   C        4.09367        7.93419       -1.06906
   C        4.85371        8.38644       -2.19283
   C        3.20348        8.82625       -0.44074
   C        4.69739        9.72403       -2.61591
   C        3.06688       10.13890       -0.88579
   H        2.62002        8.50530        0.41423
   C        3.81561       10.58808       -1.96790
   H        5.25097       10.10686       -3.46424
   H        3.70831       11.60880       -2.31201
   H        2.38154       10.81092       -0.38547
   C        5.77624        7.50677       -2.97844
   O        6.44246        7.97884       -3.88911
   O        5.85469        6.18122       -2.73956
   H        6.43554        5.60546       -3.25679
*

