# avogadro generated ORCA input file 
# Basic Mode
# 
! wB97X-D3 OPT def2-TZVP def2/J CPCM
%cpcm
  epsilon 3
end
%pal
 nprocs 4
end


* xyz -8 1
  Na       -1.57138        0.17233       -1.21484
   O        1.11940       -0.03409        0.16956
   C        2.34182       -0.06075        0.13613
   C        3.11077        1.20992        0.12786
   C        2.44630        2.45033        0.15743
   C        3.17305        3.64261        0.14960
   C        4.56695        3.61220        0.11233
   C        5.24043        2.38936        0.08266
   C        4.52194        1.17909        0.09005
   C        5.23418       -0.12397        0.05852
   O        6.45668       -0.15046        0.02589
   C        4.46496       -1.39487        0.06640
   C        5.12972       -2.63499        0.03647
   C        4.40357       -3.82989        0.04394
   S        5.26112       -5.40275        0.00553
   O        4.85580       -6.30575        1.17993
   O        4.84666       -6.25324       -1.20430
   O        6.97773       -5.41227       -0.00045
   C        3.00774       -3.79640        0.08121
   C        2.33566       -2.57327        0.11120
   C        3.05418       -1.36375        0.10419
   H        1.36495        2.49943        0.18658
   H        2.65409        4.59223        0.17250
   H        5.12729        4.53826        0.10638
   H        6.32288        2.39130        0.05395
   H        6.21144       -2.67604        0.00733
   H        2.44057       -4.71864        0.08702
   H        1.25319       -2.57458        0.13985
*

